** ==================================================================
** ABAQUS/STANDARD UNIT BENCHMARK: 2-ELEMENT CONTACT PATCH TEST
** SUBROUTINE: UINTER (User Interaction Subroutine)
** PURPOSE:    Verification of Raw -> BTR Solidification -> Welded/Cracked
** STATUS:     Exploratory Research Test (R&D Backlog)
** ==================================================================
*HEADING
Unit Patch Test for 3-State Surface Interaction Subroutine (UINTER)
**
** Node definitions (Two 1x1x1 mm Hex Elements with 0 mm initial gap)
*NODE
1, 0.0, 0.0, 0.0
2, 1.0, 0.0, 0.0
3, 1.0, 1.0, 0.0
4, 0.0, 1.0, 0.0
5, 0.0, 0.0, 1.0
6, 1.0, 0.0, 1.0
7, 1.0, 1.0, 1.0
8, 0.0, 1.0, 1.0
** Upper block (Slave)
101, 0.0, 0.0, 1.0
102, 1.0, 0.0, 1.0
103, 1.0, 1.0, 1.0
104, 0.0, 1.0, 1.0
105, 0.0, 0.0, 2.0
106, 1.0, 0.0, 2.0
107, 1.0, 1.0, 2.0
108, 0.0, 1.0, 2.0
**
*ELEMENT, TYPE=C3D8, ELSET=E_LOWER
1, 1, 2, 3, 4, 5, 6, 7, 8
*ELEMENT, TYPE=C3D8, ELSET=E_UPPER
2, 101, 102, 103, 104, 105, 106, 107, 108
**
*SOLID SECTION, ELSET=E_LOWER, MATERIAL=STEEL_16MNCR5
*SOLID SECTION, ELSET=E_UPPER, MATERIAL=STEEL_16MNCR5
**
*MATERIAL, NAME=STEEL_16MNCR5
*ELASTIC
210000.0, 0.30
*EXPANSION
1.2E-5
*DENSITY
7.85E-9
**
*SURFACE, NAME=SURF_LOWER_MASTER, TYPE=ELEMENT
1, S2
*SURFACE, NAME=SURF_UPPER_SLAVE, TYPE=ELEMENT
2, S1
**
** ==================================================================
** SURFACE INTERACTION - UINTER
** PROPS(1) = MU_VIRGIN       (0.15)
** PROPS(2) = T_SOLIDUS       (1485.0 C)
** PROPS(3) = T_LIQUIDUS      (1530.0 C)
** PROPS(4) = K_PENALTY_COMP  (1.0E6 N/mm3)
** PROPS(5) = K_WELD_BOND     (5.0E5 N/mm3)
** PROPS(6) = VIRTUAL_PAD_L0  (0.35 mm - mesh dependent scale)
** PROPS(7) = WON_CRIT_STRAIN (0.015 - 1.5% critical strain)
** ==================================================================
*SURFACE INTERACTION, NAME=INTER_WELD_UINTER
*USER INTERACTION, DEPVAR=5
0.15, 1485.0, 1530.0, 1.0E6, 5.0E5, 0.35, 0.015
**
*CONTACT PAIR, INTERACTION=INTER_WELD_UINTER
SURF_UPPER_SLAVE, SURF_LOWER_MASTER
**
*NSET, NSET_BASE
1, 2, 3, 4
*NSET, NSET_TOP
105, 106, 107, 108
**
*INITIAL CONDITIONS, TYPE=TEMPERATURE
E_LOWER, 20.0
E_UPPER, 20.0
**
** ==================================================================
** STEP 1: INITIAL MECHANICAL COMPRESSION (RAW STATE VERIFICATION)
** ==================================================================
*STEP, NAME=STEP_RAW_COMPRESSION
*STATIC
0.1, 1.0
*BOUNDARY
NSET_BASE, 1, 3, 0.0
NSET_TOP, 1, 2, 0.0
NSET_TOP, 3, 3, -0.05
*OUTPUT, FIELD
*NODE OUTPUT
U, RF
*CONTACT OUTPUT
CDISP, CSTRESS
*END STEP
**
** ==================================================================
** STEP 2: THERMAL CYCLE & BTR SOLIDIFICATION
** ==================================================================
*STEP, NAME=STEP_THERMAL_BTR
*STATIC
0.01, 1.0
*TEMPERATURE
E_LOWER, 1550.0
E_UPPER, 1550.0
*OUTPUT, FIELD
*ELEMENT OUTPUT
S, E
*CONTACT OUTPUT
CDISP, CSTRESS
*END STEP
