** ======================================================================
** 16MnCr5 (EN 10084) - phase-dependent THERMAL material card
** Generated by generate_material.py from PUBLIC sources (see header
** of the script). Diffusional kinetics are ILLUSTRATIVE ONLY.
** Units: mm, s, tonne, mJ, C
** Composition: C=0.16 Si=0.25 Mn=1.15 Cr=0.95 Ni=0.0 Mo=0.0
** Ac1=734 Ac3=840 Bs=617 Ms=425 C (empirical formulae)
** ======================================================================
*MATERIAL, NAME="ABQ_PHASE_TRANS_16MNCR5"
*DENSITY
 7.8500E-09,
**
*CONDUCTIVITY, TYPE=ISOTROPIC, DEPENDENCIES=3
** k (mW/mm/K), Temp (C), fAustenite, fBainite, fMartensite
** Ferrite: EN 1993-1-2 sec. 3.4.1.3
  53.334,    20.0, 0., 0., 0.
  50.670,   100.0, 0., 0., 0.
  47.340,   200.0, 0., 0., 0.
  44.010,   300.0, 0., 0., 0.
  40.680,   400.0, 0., 0., 0.
  37.350,   500.0, 0., 0., 0.
  34.020,   600.0, 0., 0., 0.
  30.690,   700.0, 0., 0., 0.
  27.300,   800.0, 0., 0., 0.
  27.300,  1200.0, 0., 0., 0.
  27.300,  1600.0, 0., 0., 0.
** Austenite: EN 1993-1-2 Annex C
  14.854,    20.0, 1., 0., 0.
  17.140,   200.0, 1., 0., 0.
  19.680,   400.0, 1., 0., 0.
  22.220,   600.0, 1., 0., 0.
  24.760,   800.0, 1., 0., 0.
  27.300,  1000.0, 1., 0., 0.
  29.840,  1200.0, 1., 0., 0.
  32.380,  1400.0, 1., 0., 0.
  34.920,  1600.0, 1., 0., 0.
** Bainite: EN 1993-1-2 sec. 3.4.1.3
  53.334,    20.0, 0., 1., 0.
  50.670,   100.0, 0., 1., 0.
  47.340,   200.0, 0., 1., 0.
  44.010,   300.0, 0., 1., 0.
  40.680,   400.0, 0., 1., 0.
  37.350,   500.0, 0., 1., 0.
  34.020,   600.0, 0., 1., 0.
  30.690,   700.0, 0., 1., 0.
  27.300,   800.0, 0., 1., 0.
  27.300,  1200.0, 0., 1., 0.
  27.300,  1600.0, 0., 1., 0.
** Martensite: EN 1993-1-2 sec. 3.4.1.3
  53.334,    20.0, 0., 0., 1.
  50.670,   100.0, 0., 0., 1.
  47.340,   200.0, 0., 0., 1.
  44.010,   300.0, 0., 0., 1.
  40.680,   400.0, 0., 0., 1.
  37.350,   500.0, 0., 0., 1.
  34.020,   600.0, 0., 0., 1.
  30.690,   700.0, 0., 0., 1.
  27.300,   800.0, 0., 0., 1.
  27.300,  1200.0, 0., 0., 1.
  27.300,  1600.0, 0., 0., 1.
**
*SPECIFIC HEAT, DEPENDENCIES=3
** cp (mJ/tonne/K), Temp (C), fAustenite, fBainite, fMartensite
** Ferrite: EN 1993-1-2 sec. 3.4.1.2
 4.3980E+08,    20.0, 0., 0., 0.
 4.8762E+08,   100.0, 0., 0., 0.
 5.2976E+08,   200.0, 0., 0., 0.
 5.6474E+08,   300.0, 0., 0., 0.
 6.0588E+08,   400.0, 0., 0., 0.
 6.6650E+08,   500.0, 0., 0., 0.
 7.6022E+08,   600.0, 0., 0., 0.
 8.1375E+08,   650.0, 0., 0., 0.
 1.0082E+09,   700.0, 0., 0., 0.
 1.3883E+09,   720.0, 0., 0., 0.
 2.2912E+09,   730.0, 0., 0., 0.
 5.0000E+09,   735.0, 0., 0., 0.
 2.5250E+09,   740.0, 0., 0., 0.
 1.4829E+09,   750.0, 0., 0., 0.
 9.5000E+08,   775.0, 0., 0., 0.
 8.0326E+08,   800.0, 0., 0., 0.
 6.9475E+08,   850.0, 0., 0., 0.
 6.5000E+08,   900.0, 0., 0., 0.
 6.5000E+08,  1200.0, 0., 0., 0.
 6.5000E+08,  1600.0, 0., 0., 0.
** Austenite: EN 1993-1-2 Annex C
 4.5548E+08,    20.0, 1., 0., 0.
 4.9543E+08,   200.0, 1., 0., 0.
 5.2402E+08,   400.0, 1., 0., 0.
 5.4218E+08,   600.0, 1., 0., 0.
 5.5637E+08,   800.0, 1., 0., 0.
 5.7300E+08,  1000.0, 1., 0., 0.
 5.9851E+08,  1200.0, 1., 0., 0.
 6.3934E+08,  1400.0, 1., 0., 0.
 7.0190E+08,  1600.0, 1., 0., 0.
** Bainite: EN 1993-1-2 sec. 3.4.1.2
 4.3980E+08,    20.0, 0., 1., 0.
 4.8762E+08,   100.0, 0., 1., 0.
 5.2976E+08,   200.0, 0., 1., 0.
 5.6474E+08,   300.0, 0., 1., 0.
 6.0588E+08,   400.0, 0., 1., 0.
 6.6650E+08,   500.0, 0., 1., 0.
 7.6022E+08,   600.0, 0., 1., 0.
 8.1375E+08,   650.0, 0., 1., 0.
 1.0082E+09,   700.0, 0., 1., 0.
 1.3883E+09,   720.0, 0., 1., 0.
 2.2912E+09,   730.0, 0., 1., 0.
 5.0000E+09,   735.0, 0., 1., 0.
 2.5250E+09,   740.0, 0., 1., 0.
 1.4829E+09,   750.0, 0., 1., 0.
 9.5000E+08,   775.0, 0., 1., 0.
 8.0326E+08,   800.0, 0., 1., 0.
 6.9475E+08,   850.0, 0., 1., 0.
 6.5000E+08,   900.0, 0., 1., 0.
 6.5000E+08,  1200.0, 0., 1., 0.
 6.5000E+08,  1600.0, 0., 1., 0.
** Martensite: EN 1993-1-2 sec. 3.4.1.2
 4.3980E+08,    20.0, 0., 0., 1.
 4.8762E+08,   100.0, 0., 0., 1.
 5.2976E+08,   200.0, 0., 0., 1.
 5.6474E+08,   300.0, 0., 0., 1.
 6.0588E+08,   400.0, 0., 0., 1.
 6.6650E+08,   500.0, 0., 0., 1.
 7.6022E+08,   600.0, 0., 0., 1.
 8.1375E+08,   650.0, 0., 0., 1.
 1.0082E+09,   700.0, 0., 0., 1.
 1.3883E+09,   720.0, 0., 0., 1.
 2.2912E+09,   730.0, 0., 0., 1.
 5.0000E+09,   735.0, 0., 0., 1.
 2.5250E+09,   740.0, 0., 0., 1.
 1.4829E+09,   750.0, 0., 0., 1.
 9.5000E+08,   775.0, 0., 0., 1.
 8.0326E+08,   800.0, 0., 0., 1.
 6.9475E+08,   850.0, 0., 0., 1.
 6.5000E+08,   900.0, 0., 0., 1.
 6.5000E+08,  1200.0, 0., 0., 1.
 6.5000E+08,  1600.0, 0., 0., 1.
**
*USER DEFINED FIELD, TYPE=USER
*DEPVAR
** 3 (RLS, fGrainColumnar, GrainSize) + 4 phases + 3 x 6 transformations
25
1, RLS
2, fGrainColumnar
3, GrainSize
4, fPhase_Ferrite
5, fPhase_Austenite
6, fPhase_Bainite
7, fPhase_Martensite
*PARAMETER TABLE, TYPE="ABQ_PHASE_TRANS_MeltingTemperature"
1490, 1515,
*LATENT HEAT
2.700E+11, 1490, 1515, 1.0
** Anneal temperature: only used by a sequential mechanical analysis
*ANNEAL TEMPERATURE
1515,
*PARAMETER TABLE, TYPE="ABQ_PHASE_TRANS_SolidPhases"
"Ferrite", 0.,
"Austenite", 1.,
"Bainite", 0.,
"Martensite", 0.,
*PARAMETER TABLE, TYPE="ABQ_PHASE_TRANS_Transformations"
** --- Cooling transformations ---
"AtoF", MAX, -1E36, 0, INTERVAL, 617, 840., DIFFUSIONAL, JMA, NO, 1, 1, "Austenite", " ", " ", "Ferrite",
" ", " ",
"AtoB", MAX, -1E36, 0, INTERVAL, 425, 617., DIFFUSIONAL, JMA, NO, 1, 1, "Austenite", " ", " ", "Bainite",
" ", " ",
"AtoM", MAX, -1E36, 0, MAX, -1E36, 425., MARTENSITIC, KM, NO, 1, 1, "Austenite", " ", " ", "Martensite",
" ", " ",
** --- Heating transformations ---
"FtoA", MIN, 0, 1E36, INTERVAL, 734, 1490., DIFFUSIONAL, TTT, NO, 1, 1, "Ferrite", " ", " ", "Austenite",
" ", " ",
"BtoA", MIN, 0, 1E36, INTERVAL, 734, 1490., DIFFUSIONAL, TTT, NO, 1, 1, "Bainite", " ", " ", "Austenite",
" ", " ",
"MtoA", MIN, 0, 1E36, INTERVAL, 734, 1490., DIFFUSIONAL, TTT, NO, 1, 1, "Martensite", " ", " ", "Austenite",
" ", " "
** --- AtoF (ILLUSTRATIVE C-curve, te/ts = 8) ---
*PARAMETER TABLE, TYPE="ABQ_PHASE_TRANS_Diffusional_TTT_Constants", LABEL="ABQ_PHASE_TRANS_Trans_AtoF_TTT_Constants"
 0.05, 0.95
*PROPERTY TABLE, TYPE="ABQ_PHASE_TRANS_Diffusional_TTT_Diagram", LABEL="ABQ_PHASE_TRANS_Trans_AtoF_TTT_Diagram", TEMPERATURE
** Start Time, End Time, Temp(C)
 6, 48, 622.
 3, 24, 650.
 4.5, 36, 680.
 10, 80, 710.
 40, 320, 740.
 150, 1200, 780.
*PROPERTY TABLE, TYPE="ABQ_PHASE_TRANS_Diffusional_JMA_Coefficients", LABEL="ABQ_PHASE_TRANS_Trans_AtoF_JMA_Coefficients", TEMPERATURE
** k, n, Temp(C)   [derived from the TTT curve above]
 1.7066E+00, -1.9560, 622.
 4.3985E-01, -1.9560, 650.
 9.7217E-01, -1.9560, 680.
 4.6351E+00, -1.9560, 710.
 6.9773E+01, -1.9560, 740.
 9.2574E+02, -1.9560, 780.
*PROPERTY TABLE, TYPE="ABQ_PHASE_TRANS_Diffusional_ParentEquiFrac", LABEL="ABQ_PHASE_TRANS_Trans_AtoF_ParentEquiFrac", TEMPERATURE
 0.0, 734.
 1.0, 840.
** --- AtoB (ILLUSTRATIVE C-curve, te/ts = 15) ---
*PARAMETER TABLE, TYPE="ABQ_PHASE_TRANS_Diffusional_TTT_Constants", LABEL="ABQ_PHASE_TRANS_Trans_AtoB_TTT_Constants"
 0.05, 0.95
*PROPERTY TABLE, TYPE="ABQ_PHASE_TRANS_Diffusional_TTT_Diagram", LABEL="ABQ_PHASE_TRANS_Trans_AtoB_TTT_Diagram", TEMPERATURE
** Start Time, End Time, Temp(C)
 1.2, 18, 425.
 0.9, 13.5, 450.
 1.5, 22.5, 500.
 4, 60, 550.
 15, 225, 610.
*PROPERTY TABLE, TYPE="ABQ_PHASE_TRANS_Diffusional_JMA_Coefficients", LABEL="ABQ_PHASE_TRANS_Trans_AtoB_JMA_Coefficients", TEMPERATURE
** k, n, Temp(C)   [derived from the TTT curve above]
 6.7451E-02, -1.5020, 425.
 4.3786E-02, -1.5020, 450.
 9.4307E-02, -1.5020, 500.
 4.1146E-01, -1.5020, 550.
 2.9957E+00, -1.5020, 610.
*PROPERTY TABLE, TYPE="ABQ_PHASE_TRANS_Diffusional_ParentEquiFrac", LABEL="ABQ_PHASE_TRANS_Trans_AtoB_ParentEquiFrac", TEMPERATURE
 0.0, 425.
 1.0, 617.
** --- AtoM: Koistinen-Marburger, gamma = 0.011 1/K, Ms = 425 C ---
*PROPERTY TABLE, TYPE="ABQ_PHASE_TRANS_Martensitic_KM_Coefficients", LABEL="ABQ_PHASE_TRANS_Trans_AtoM_KM_Coefficients"
 0.011
*PARAMETER TABLE, TYPE="ABQ_PHASE_TRANS_Martensitic_TTT_Constants", LABEL="ABQ_PHASE_TRANS_Trans_AtoM_TTT_Constants"
 0.05, 0.9
*PROPERTY TABLE, TYPE="ABQ_PHASE_TRANS_Martensitic_TTT_Diagram", LABEL="ABQ_PHASE_TRANS_Trans_AtoM_TTT_Diagram"
** temperatures at 5% and 90% martensite from K-M
 420., 216.
*PROPERTY TABLE, TYPE="ABQ_PHASE_TRANS_Martensitic_ParentRetainedFrac", LABEL="ABQ_PHASE_TRANS_Trans_AtoM_ParentRetainedFrac"
** Retained proportion, Starting proportion  (no retained austenite)
 0., 0.
 0., 1.
** --- FtoA: austenitisation on heating (ILLUSTRATIVE) ---
*PARAMETER TABLE, TYPE="ABQ_PHASE_TRANS_Diffusional_TTT_Constants", LABEL="ABQ_PHASE_TRANS_Trans_FtoA_TTT_Constants"
 0.05, 0.95
*PROPERTY TABLE, TYPE="ABQ_PHASE_TRANS_Diffusional_TTT_Diagram", LABEL="ABQ_PHASE_TRANS_Trans_FtoA_TTT_Diagram", TEMPERATURE
 1, 10, 734.
 0.1, 1, 764.
 0.01, 0.1, 840.
 0.001, 0.01, 940.
 1e-06, 1e-05, 1490.
*PROPERTY TABLE, TYPE="ABQ_PHASE_TRANS_Diffusional_ParentEquiFrac", LABEL="ABQ_PHASE_TRANS_Trans_FtoA_ParentEquiFrac", TEMPERATURE
 1.0, 734.
 0.0, 840.
** --- BtoA: austenitisation on heating (ILLUSTRATIVE) ---
*PARAMETER TABLE, TYPE="ABQ_PHASE_TRANS_Diffusional_TTT_Constants", LABEL="ABQ_PHASE_TRANS_Trans_BtoA_TTT_Constants"
 0.05, 0.95
*PROPERTY TABLE, TYPE="ABQ_PHASE_TRANS_Diffusional_TTT_Diagram", LABEL="ABQ_PHASE_TRANS_Trans_BtoA_TTT_Diagram", TEMPERATURE
 1, 10, 734.
 0.1, 1, 764.
 0.01, 0.1, 840.
 0.001, 0.01, 940.
 1e-06, 1e-05, 1490.
*PROPERTY TABLE, TYPE="ABQ_PHASE_TRANS_Diffusional_ParentEquiFrac", LABEL="ABQ_PHASE_TRANS_Trans_BtoA_ParentEquiFrac", TEMPERATURE
 1.0, 734.
 0.0, 840.
** --- MtoA: austenitisation on heating (ILLUSTRATIVE) ---
*PARAMETER TABLE, TYPE="ABQ_PHASE_TRANS_Diffusional_TTT_Constants", LABEL="ABQ_PHASE_TRANS_Trans_MtoA_TTT_Constants"
 0.05, 0.95
*PROPERTY TABLE, TYPE="ABQ_PHASE_TRANS_Diffusional_TTT_Diagram", LABEL="ABQ_PHASE_TRANS_Trans_MtoA_TTT_Diagram", TEMPERATURE
 1, 10, 734.
 0.1, 1, 764.
 0.01, 0.1, 840.
 0.001, 0.01, 940.
 1e-06, 1e-05, 1490.
*PROPERTY TABLE, TYPE="ABQ_PHASE_TRANS_Diffusional_ParentEquiFrac", LABEL="ABQ_PHASE_TRANS_Trans_MtoA_ParentEquiFrac", TEMPERATURE
 1.0, 734.
 0.0, 840.
*PARAMETER TABLE, TYPE="ABQ_PHASE_TRANS_FieldVariables"
1, "RFPHASE2",
2, "RFPHASE3",
3, "RFPHASE4",
**
*********************************************
** Table types and labels are case sensitive
*********************************************
**-------------------------------------------
**RLS state
**-------------------------------------------
*PARAMETER TABLE TYPE,  NAME="ABQ_PHASE_TRANS_MeltingTemperature", parameters=2
 FLOAT, , "Solidus Temperature" , , ,
 FLOAT, , "Liquidus Temperature", , ,
**-------------------------------------------
**Solid-phase Transformations
**-------------------------------------------
*PARAMETER TABLE TYPE,  NAME="ABQ_PHASE_TRANS_SolidPhases", parameters=2
 STRING ,   , "Solid Phase Name"                    , , ,
 FLOAT  ,   , "Initial Fraction upon Solidification", , ,
**
*PARAMETER TABLE TYPE, NAME="ABQ_PHASE_TRANS_Transformations", parameters=18
 STRING ,      , "Solid-Phase Transformation Name"     , ,                        ,
 STRING ,      , "Temperature Rate Condition"          , , INTERVAL|MIN|MAX|NONE  ,
 FLOAT  , -1E36, "Lower Bound (Temperature Rate Range)", ,                        ,
 FLOAT  ,  1E36, "Upper Bound (Temperature Rate Range)", ,                        ,
 STRING ,      , "Temperature Condition"               , , INTERVAL|MIN|MAX|NONE  ,
 FLOAT  , -1E36, "Lower Bound (Temperature Range)"     , ,                        ,
 FLOAT  ,  1E36, "Upper Bound (Temperature Range)"     , ,                        ,
 STRING ,      , "Transformation Type"                 , , DIFFUSIONAL|MARTENSITIC,
 STRING ,      , "Input Option"                        , , TTT|JMA|KM             ,
 STRING ,      , "Reversible Transformation"           , , NO|YES                 ,
 INTEGER,      , "Parent Phases"                       , ,                        ,
 INTEGER,      , "Child Phases"                        , ,                        ,
 STRING , " "  , "Parent Solid Phase 1 Name"           , ,                        ,
 STRING , " "  , "Parent Solid Phase 2 Name"           , ,                        ,
 STRING , " "  , "Parent Solid Phase 3 Name"           , ,                        ,
 STRING , " "  , "Child Solid Phase 1 Name"            , ,                        ,
 STRING , " "  , "Child Solid Phase 2 Name"            , ,                        ,
 STRING , " "  , "Child Solid Phase 3 Name"            , ,                        ,
**
*PROPERTY TABLE TYPE, NAME="ABQ_PHASE_TRANS_Martensitic_KM_Coefficients", properties=1
 "KM Coefficient gamma"
*PARAMETER TABLE TYPE, NAME="ABQ_PHASE_TRANS_Martensitic_TTT_Constants", parameters=2
 FLOAT, , "Starting Proportion", , ,
 FLOAT, , "Ending Proportion"  , , ,
*PROPERTY TABLE TYPE,  NAME="ABQ_PHASE_TRANS_Martensitic_TTT_Diagram", properties=2
 "Start Temperature"
 "End Temperature"
*PROPERTY TABLE TYPE,  NAME="ABQ_PHASE_TRANS_Martensitic_ParentRetainedFrac", properties=1, independent variables=1
 "Retained Proportion"
 "Starting Proportion"
**
*PROPERTY TABLE TYPE,  NAME="ABQ_PHASE_TRANS_Diffusional_JMA_Coefficients", properties=2
 "JMA Coefficient k"
 "JMA Coefficient n"
*PARAMETER TABLE TYPE, NAME="ABQ_PHASE_TRANS_Diffusional_TTT_Constants", parameters=2
 FLOAT, , "Starting Proportion", , ,
 FLOAT, , "Ending Proportion"  , , ,
*PROPERTY TABLE TYPE, NAME="ABQ_PHASE_TRANS_Diffusional_TTT_Diagram", properties=2
 "Start Time"
 "End Time"
*PROPERTY TABLE TYPE, NAME="ABQ_PHASE_TRANS_Diffusional_ParentEquiFrac", properties=1
 "Parent Equilibrium Proportion"
**-------------------------------------------
**Morphology
**-------------------------------------------
*PARAMETER TABLE TYPE, NAME="ABQ_PHASE_TRANS_SolidificationMap_Constants", parameters=2
 FLOAT, , "Critical Solidification Rate"       , , ,
 FLOAT, , "Constant Grain Size LogR-LogG Slope", , ,
*PROPERTY TABLE TYPE, NAME="ABQ_PHASE_TRANS_SolidificationMap_Diagram", properties=1, independent variables=1
 "LogG"
 "LogR"
**-------------------------------------------
**Grain size
**-------------------------------------------
*PARAMETER TABLE TYPE,  name="ABQ_PHASE_TRANS_GrainSize_Definitions", parameters=4
 FLOAT  ,      , "Initial Grain Size"                          , ,                      ,
 STRING ,      , "Grain-Growth Temperature Condition"          , , INTERVAL|MIN|MAX|NONE,
 FLOAT  , -1E36, "Lower Bound (Grain-Growth Temperature Range)", ,                      ,
 FLOAT  ,  1E36, "Upper Bound (Grain-Growth Temperature Range)", ,                      ,
*PROPERTY TABLE TYPE, NAME="ABQ_PHASE_TRANS_GrainSize_Coefficients", properties=3
 "Grain-Growth Coefficient k"
 "Grain-Growth Coefficient n"
 "Grain-Growth Coefficient Q"
**-------------------------------------------
**Field Variables
**-------------------------------------------
*PARAMETER TABLE TYPE, name="ABQ_PHASE_TRANS_FieldVariables", parameters = 2
 INTEGER, , "Field Variable Index", ,                                      ,
 STRING , , "Data Option"         , , RLS|RFPHASEi|GRAINSIZE|FGRAINCOLUMNAR,
